50
400
313
309
307
297
296
277
273
273
255
225
222
218
218
210
205
205
199
194
193
192
186
186
184
180
177
176
172
170
163
160
155
149
148
145
138
138
134
134
134
133
119
118
108
105
97
89
64
63
59
53
